benchmarks_CP/INST_64x64/40/inst64x64_40_3.dzn
S=8;
start=[|
-1,	-1,	-1,	29,	-1,	61,	42,	-1,	-1,	-1,	18,	-1,	-1,	-1,	-1,	-1,	41,	40,	-1,	-1,	14,	38,	-1,	-1,	45,	-1,	-1,	13,	34,	63,	2,	-1,	46,	-1,	-1,	-1,	-1,	31,	-1,	-1,	15,	-1,	-1,	-1,	44,	56,	25,	57,	-1,	22,	23,	-1,	-1,	54,	64,	-1,	-1,	-1,	9,	50,	-1,	32,	-1,	60|
-1,	-1,	-1,	5,	-1,	-1,	-1,	20,	-1,	-1,	-1,	-1,	-1,	-1,	-1,	33,	-1,	-1,	2,	-1,	-1,	-1,	-1,	-1,	-1,	-1,	30,	-1,	-1,	-1,	16,	-1,	-1,	28,	41,	38,	-1,	56,	-1,	37,	-1,	-1,	-1,	-1,	46,	61,	13,	-1,	18,	-1,	21,	7,	-1,	35,	-1,	-1,	-1,	40,	17,	-1,	-1,	6,	-1,	47|
17,	-1,	-1,	-1,	-1,	-1,	-1,	-1,	-1,	-1,	-1,	24,	-1,	38,	28,	-1,	15,	-1,	16,	-1,	-1,	35,	-1,	48,	-1,	58,	-1,	51,	-1,	-1,	-1,	-1,	13,	-1,	5,	-1,	-1,	-1,	57,	54,	-1,	-1,	50,	64,	-1,	-1,	-1,	-1,	-1,	-1,	31,	32,	1,	-1,	-1,	63,	-1,	-1,	4,	-1,	-1,	-1,	27,	22|
16,	-1,	-1,	15,	-1,	63,	-1,	-1,	21,	3,	23,	-1,	11,	43,	-1,	-1,	62,	24,	-1,	-1,	31,	17,	-1,	-1,	1,	9,	-1,	-1,	27,	-1,	-1,	-1,	44,	-1,	29,	-1,	-1,	-1,	7,	64,	-1,	-1,	42,	2,	-1,	-1,	-1,	-1,	58,	53,	-1,	-1,	-1,	30,	-1,	-1,	35,	34,	-1,	-1,	25,	5,	-1,	18|
-1,	-1,	-1,	36,	-1,	-1,	-1,	-1,	1,	-1,	-1,	15,	2,	-1,	61,	-1,	30,	-1,	-1,	-1,	-1,	-1,	37,	-1,	55,	-1,	-1,	32,	-1,	23,	19,	52,	47,	39,	4,	17,	-1,	6,	-1,	50,	-1,	-1,	-1,	-1,	-1,	-1,	27,	3,	57,	-1,	-1,	10,	60,	28,	29,	25,	62,	-1,	56,	-1,	-1,	33,	51,	42|
33,	-1,	-1,	31,	-1,	-1,	-1,	27,	-1,	-1,	56,	-1,	7,	64,	-1,	60,	59,	-1,	-1,	-1,	42,	11,	49,	-1,	-1,	-1,	37,	-1,	-1,	21,	15,	22,	-1,	10,	-1,	2,	-1,	-1,	40,	-1,	16,	-1,	-1,	-1,	-1,	-1,	-1,	58,	-1,	-1,	-1,	50,	-1,	-1,	61,	-1,	-1,	-1,	13,	55,	-1,	-1,	26,	52|
3,	23,	-1,	8,	-1,	45,	19,	-1,	6,	51,	-1,	-1,	-1,	-1,	41,	-1,	60,	34,	-1,	-1,	46,	-1,	-1,	44,	31,	61,	-1,	-1,	26,	-1,	25,	-1,	-1,	-1,	-1,	43,	30,	-1,	-1,	21,	-1,	-1,	-1,	-1,	-1,	-1,	-1,	-1,	-1,	-1,	-1,	-1,	-1,	-1,	-1,	2,	1,	-1,	-1,	-1,	-1,	-1,	16,	-1|
-1,	44,	-1,	35,	-1,	57,	-1,	-1,	13,	-1,	55,	-1,	9,	-1,	-1,	16,	-1,	47,	-1,	-1,	54,	-1,	-1,	-1,	24,	-1,	28,	-1,	17,	-1,	-1,	-1,	-1,	60,	-1,	-1,	59,	-1,	-1,	27,	37,	-1,	-1,	-1,	31,	-1,	-1,	-1,	-1,	34,	42,	-1,	-1,	-1,	46,	15,	12,	-1,	20,	30,	61,	-1,	-1,	2|
-1,	-1,	-1,	-1,	-1,	-1,	27,	42,	26,	25,	-1,	37,	30,	-1,	56,	-1,	18,	-1,	59,	55,	-1,	-1,	44,	-1,	-1,	-1,	-1,	-1,	45,	-1,	-1,	-1,	-1,	-1,	-1,	39,	-1,	64,	-1,	-1,	33,	-1,	28,	-1,	-1,	-1,	29,	-1,	53,	-1,	35,	51,	-1,	40,	19,	-1,	50,	-1,	-1,	-1,	-1,	61,	-1,	-1|
-1,	-1,	-1,	-1,	50,	-1,	-1,	-1,	-1,	19,	-1,	-1,	55,	-1,	-1,	9,	-1,	61,	-1,	14,	3,	-1,	-1,	32,	17,	30,	-1,	49,	-1,	-1,	-1,	-1,	16,	18,	27,	-1,	-1,	48,	23,	26,	-1,	8,	6,	-1,	36,	-1,	-1,	-1,	-1,	-1,	-1,	-1,	7,	-1,	56,	1,	-1,	-1,	15,	39,	34,	2,	53,	-1|
-1,	-1,	26,	6,	-1,	28,	-1,	-1,	34,	1,	40,	12,	31,	53,	-1,	-1,	-1,	35,	-1,	-1,	-1,	-1,	-1,	7,	27,	50,	-1,	-1,	-1,	-1,	-1,	62,	38,	-1,	25,	-1,	-1,	20,	-1,	33,	-1,	58,	-1,	-1,	-1,	11,	57,	13,	22,	-1,	-1,	2,	54,	-1,	10,	-1,	44,	-1,	43,	-1,	17,	-1,	59,	-1|
51,	-1,	-1,	-1,	-1,	16,	62,	-1,	-1,	-1,	58,	42,	-1,	-1,	-1,	-1,	57,	23,	53,	-1,	-1,	-1,	-1,	-1,	38,	-1,	-1,	-1,	-1,	-1,	-1,	8,	40,	5,	-1,	24,	6,	22,	37,	28,	-1,	-1,	-1,	-1,	-1,	26,	17,	7,	-1,	-1,	-1,	-1,	-1,	-1,	33,	-1,	-1,	-1,	-1,	-1,	11,	54,	36,	-1|
-1,	-1,	-1,	-1,	-1,	17,	-1,	-1,	33,	36,	11,	-1,	62,	52,	-1,	-1,	-1,	38,	-1,	30,	-1,	19,	10,	-1,	-1,	-1,	-1,	9,	-1,	-1,	60,	43,	-1,	-1,	53,	63,	-1,	-1,	-1,	58,	-1,	-1,	3,	-1,	24,	51,	-1,	-1,	-1,	-1,	-1,	20,	-1,	15,	-1,	-1,	18,	42,	-1,	37,	16,	-1,	55,	-1|
-1,	-1,	-1,	-1,	3,	-1,	12,	-1,	-1,	-1,	-1,	16,	-1,	-1,	64,	-1,	-1,	50,	20,	-1,	-1,	-1,	-1,	-1,	-1,	-1,	13,	-1,	4,	-1,	-1,	-1,	-1,	36,	21,	47,	42,	-1,	-1,	49,	-1,	-1,	-1,	15,	43,	-1,	-1,	-1,	27,	-1,	-1,	-1,	41,	-1,	-1,	-1,	-1,	63,	5,	6,	28,	-1,	-1,	-1|
36,	-1,	-1,	-1,	29,	-1,	-1,	-1,	43,	-1,	3,	20,	-1,	-1,	-1,	-1,	-1,	-1,	5,	-1,	15,	24,	42,	-1,	-1,	-1,	-1,	-1,	-1,	-1,	-1,	-1,	19,	-1,	-1,	4,	2,	-1,	-1,	-1,	-1,	-1,	-1,	-1,	64,	-1,	-1,	-1,	-1,	-1,	52,	34,	-1,	-1,	49,	57,	-1,	-1,	25,	56,	-1,	-1,	14,	31|
15,	-1,	37,	-1,	53,	34,	39,	-1,	-1,	57,	-1,	-1,	-1,	10,	-1,	-1,	-1,	-1,	64,	-1,	49,	-1,	13,	-1,	-1,	-1,	-1,	-1,	54,	25,	-1,	-1,	-1,	-1,	-1,	-1,	52,	-1,	-1,	-1,	50,	41,	23,	63,	-1,	-1,	-1,	-1,	44,	4,	62,	-1,	-1,	-1,	-1,	9,	26,	20,	46,	12,	48,	-1,	-1,	-1|
-1,	-1,	3,	41,	-1,	-1,	22,	-1,	-1,	-1,	-1,	21,	4,	-1,	34,	36,	13,	-1,	24,	-1,	-1,	32,	58,	-1,	37,	-1,	-1,	-1,	-1,	18,	-1,	40,	64,	-1,	2,	61,	-1,	-1,	-1,	19,	-1,	-1,	-1,	-1,	47,	44,	-1,	-1,	29,	-1,	50,	6,	11,	-1,	7,	46,	-1,	-1,	52,	33,	-1,	-1,	60,	45|
23,	14,	-1,	-1,	27,	-1,	-1,	-1,	-1,	-1,	-1,	58,	-1,	-1,	57,	49,	-1,	-1,	-1,	-1,	-1,	-1,	54,	-1,	59,	39,	-1,	-1,	-1,	35,	-1,	-1,	-1,	-1,	26,	18,	55,	-1,	-1,	-1,	-1,	-1,	-1,	-1,	-1,	41,	-1,	1,	-1,	61,	25,	-1,	32,	8,	34,	10,	30,	5,	29,	9,	13,	-1,	-1,	16|
-1,	-1,	47,	46,	19,	62,	-1,	-1,	-1,	23,	31,	-1,	-1,	-1,	39,	26,	-1,	18,	37,	49,	-1,	-1,	-1,	-1,	34,	-1,	3,	-1,	-1,	-1,	-1,	7,	-1,	33,	-1,	-1,	29,	-1,	-1,	38,	45,	-1,	64,	-1,	30,	-1,	-1,	40,	43,	-1,	-1,	-1,	27,	-1,	60,	22,	-1,	-1,	-1,	-1,	24,	48,	1,	-1|
-1,	17,	-1,	-1,	-1,	-1,	29,	8,	52,	-1,	-1,	25,	37,	7,	54,	-1,	64,	-1,	-1,	-1,	44,	-1,	-1,	-1,	4,	-1,	36,	33,	-1,	-1,	-1,	-1,	6,	-1,	-1,	-1,	-1,	41,	-1,	-1,	32,	-1,	-1,	9,	-1,	-1,	-1,	61,	-1,	-1,	55,	-1,	-1,	53,	-1,	-1,	-1,	-1,	-1,	-1,	49,	21,	18,	-1|
-1,	-1,	9,	-1,	-1,	5,	-1,	36,	55,	35,	15,	-1,	-1,	-1,	14,	-1,	45,	-1,	-1,	-1,	-1,	-1,	-1,	-1,	13,	-1,	-1,	-1,	-1,	-1,	-1,	-1,	-1,	62,	-1,	-1,	37,	42,	-1,	40,	23,	-1,	-1,	-1,	-1,	-1,	6,	-1,	-1,	-1,	-1,	-1,	-1,	-1,	28,	33,	-1,	-1,	-1,	-1,	-1,	-1,	-1,	-1|
54,	60,	-1,	48,	-1,	30,	-1,	-1,	40,	-1,	-1,	6,	-1,	-1,	13,	-1,	-1,	41,	-1,	-1,	-1,	-1,	59,	-1,	-1,	11,	25,	64,	-1,	38,	-1,	63,	7,	34,	-1,	-1,	-1,	24,	-1,	-1,	58,	-1,	-1,	-1,	15,	55,	4,	43,	9,	42,	1,	26,	-1,	62,	47,	-1,	8,	-1,	-1,	51,	-1,	37,	20,	53|
34,	-1,	-1,	-1,	-1,	-1,	-1,	13,	3,	43,	-1,	-1,	-1,	11,	-1,	62,	-1,	29,	-1,	1,	-1,	8,	-1,	51,	-1,	-1,	60,	-1,	-1,	-1,	-1,	61,	12,	-1,	36,	-1,	25,	59,	44,	-1,	7,	18,	31,	-1,	53,	54,	-1,	-1,	-1,	56,	-1,	30,	-1,	-1,	-1,	-1,	-1,	-1,	55,	46,	-1,	-1,	23,	-1|
-1,	-1,	-1,	-1,	-1,	4,	24,	-1,	-1,	-1,	-1,	61,	-1,	-1,	-1,	-1,	28,	-1,	-1,	-1,	-1,	-1,	-1,	-1,	-1,	-1,	50,	-1,	21,	-1,	-1,	44,	-1,	30,	11,	54,	31,	-1,	-1,	-1,	-1,	-1,	-1,	51,	5,	-1,	37,	-1,	3,	-1,	15,	19,	-1,	-1,	-1,	-1,	43,	-1,	47,	-1,	-1,	-1,	-1,	-1|
1,	32,	-1,	-1,	62,	-1,	-1,	54,	-1,	56,	-1,	-1,	13,	39,	-1,	30,	37,	-1,	-1,	43,	45,	12,	15,	-1,	-1,	23,	-1,	-1,	46,	-1,	44,	-1,	-1,	26,	3,	22,	9,	-1,	-1,	-1,	-1,	-1,	35,	-1,	63,	-1,	21,	-1,	50,	24,	-1,	-1,	-1,	-1,	52,	-1,	-1,	-1,	58,	-1,	8,	-1,	41,	38|
28,	27,	-1,	-1,	5,	13,	-1,	4,	15,	22,	-1,	23,	-1,	-1,	50,	51,	-1,	-1,	52,	-1,	39,	40,	-1,	-1,	-1,	-1,	-1,	-1,	-1,	-1,	-1,	-1,	29,	37,	-1,	-1,	-1,	-1,	19,	24,	61,	-1,	33,	-1,	-1,	7,	55,	-1,	10,	-1,	-1,	46,	-1,	3,	1,	-1,	-1,	-1,	30,	-1,	-1,	-1,	-1,	-1|
-1,	-1,	21,	19,	2,	-1,	-1,	63,	38,	-1,	-1,	-1,	-1,	-1,	-1,	-1,	35,	-1,	-1,	56,	-1,	57,	62,	3,	-1,	45,	24,	48,	-1,	-1,	-1,	25,	-1,	-1,	42,	-1,	17,	18,	-1,	-1,	-1,	-1,	-1,	34,	50,	-1,	1,	-1,	-1,	-1,	5,	36,	-1,	-1,	-1,	-1,	23,	51,	-1,	-1,	20,	-1,	-1,	46|
-1,	61,	16,	-1,	47,	43,	-1,	45,	18,	37,	48,	-1,	12,	-1,	31,	19,	-1,	-1,	28,	9,	-1,	-1,	-1,	-1,	21,	-1,	56,	40,	-1,	-1,	-1,	-1,	-1,	-1,	-1,	-1,	-1,	-1,	50,	7,	24,	25,	41,	4,	-1,	39,	-1,	46,	-1,	-1,	-1,	23,	-1,	13,	-1,	-1,	6,	-1,	-1,	-1,	-1,	-1,	-1,	26|
-1,	-1,	-1,	-1,	-1,	-1,	57,	-1,	-1,	34,	24,	55,	25,	-1,	-1,	-1,	-1,	53,	-1,	17,	-1,	23,	51,	50,	-1,	1,	27,	-1,	52,	-1,	63,	59,	15,	49,	-1,	-1,	-1,	-1,	46,	-1,	-1,	-1,	-1,	19,	-1,	-1,	28,	38,	61,	-1,	-1,	33,	-1,	-1,	48,	-1,	13,	-1,	-1,	-1,	64,	-1,	2,	12|
-1,	46,	25,	59,	7,	33,	-1,	-1,	-1,	52,	-1,	47,	61,	5,	1,	-1,	36,	-1,	-1,	-1,	-1,	-1,	16,	-1,	-1,	-1,	26,	54,	11,	43,	-1,	13,	-1,	-1,	10,	28,	-1,	2,	-1,	-1,	31,	-1,	-1,	-1,	-1,	40,	8,	-1,	-1,	38,	-1,	62,	-1,	27,	-1,	-1,	15,	29,	-1,	-1,	-1,	-1,	-1,	39|
-1,	50,	15,	12,	-1,	-1,	-1,	24,	20,	-1,	-1,	-1,	-1,	-1,	-1,	17,	-1,	-1,	-1,	26,	-1,	7,	-1,	61,	-1,	-1,	39,	62,	-1,	41,	49,	-1,	51,	27,	-1,	64,	-1,	-1,	-1,	56,	2,	-1,	36,	57,	-1,	32,	-1,	-1,	31,	-1,	29,	-1,	-1,	16,	22,	-1,	-1,	-1,	-1,	-1,	40,	19,	-1,	-1|
-1,	-1,	-1,	52,	37,	-1,	-1,	-1,	-1,	-1,	-1,	57,	16,	40,	36,	-1,	-1,	20,	13,	-1,	25,	-1,	-1,	-1,	50,	31,	-1,	-1,	-1,	-1,	-1,	-1,	-1,	-1,	-1,	23,	34,	39,	-1,	-1,	-1,	-1,	11,	-1,	48,	-1,	45,	-1,	-1,	-1,	-1,	-1,	-1,	-1,	-1,	26,	61,	33,	-1,	-1,	-1,	-1,	-1,	-1|
48,	-1,	-1,	10,	-1,	-1,	-1,	-1,	-1,	49,	-1,	-1,	-1,	20,	51,	8,	-1,	28,	7,	-1,	58,	15,	41,	5,	-1,	-1,	2,	-1,	-1,	44,	4,	-1,	35,	59,	-1,	-1,	-1,	-1,	-1,	12,	56,	31,	-1,	30,	-1,	-1,	40,	27,	14,	-1,	-1,	9,	50,	-1,	-1,	52,	-1,	-1,	21,	-1,	47,	-1,	-1,	33|
-1,	-1,	-1,	-1,	52,	6,	-1,	-1,	-1,	-1,	-1,	3,	40,	-1,	-1,	50,	-1,	-1,	56,	-1,	8,	-1,	-1,	18,	-1,	60,	-1,	-1,	-1,	-1,	-1,	64,	-1,	-1,	-1,	-1,	44,	7,	33,	-1,	-1,	-1,	-1,	-1,	4,	-1,	15,	-1,	-1,	23,	-1,	-1,	-1,	43,	-1,	35,	34,	-1,	-1,	38,	26,	41,	61,	27|
4,	-1,	-1,	-1,	9,	3,	-1,	-1,	37,	-1,	5,	32,	33,	-1,	-1,	24,	-1,	-1,	-1,	-1,	47,	-1,	-1,	-1,	-1,	-1,	21,	-1,	59,	36,	-1,	-1,	-1,	-1,	-1,	45,	-1,	50,	14,	-1,	-1,	10,	-1,	-1,	-1,	48,	-1,	-1,	60,	15,	18,	-1,	-1,	-1,	40,	39,	22,	-1,	-1,	-1,	-1,	42,	-1,	-1|
-1,	28,	41,	-1,	-1,	24,	-1,	57,	12,	-1,	43,	-1,	-1,	19,	46,	-1,	-1,	-1,	3,	27,	-1,	-1,	-1,	-1,	-1,	29,	-1,	-1,	48,	-1,	-1,	-1,	-1,	-1,	18,	-1,	53,	-1,	-1,	-1,	64,	-1,	-1,	-1,	6,	35,	-1,	-1,	4,	-1,	-1,	-1,	-1,	-1,	-1,	-1,	-1,	-1,	44,	-1,	-1,	15,	-1,	-1|
-1,	-1,	50,	20,	55,	-1,	-1,	-1,	-1,	64,	57,	38,	-1,	25,	-1,	-1,	1,	17,	-1,	-1,	24,	-1,	-1,	-1,	-1,	-1,	-1,	47,	-1,	-1,	-1,	-1,	28,	-1,	8,	26,	4,	40,	36,	-1,	42,	43,	59,	-1,	-1,	-1,	-1,	49,	-1,	-1,	63,	-1,	6,	32,	37,	51,	-1,	23,	12,	10,	-1,	45,	-1,	-1|
14,	-1,	-1,	-1,	38,	11,	-1,	19,	16,	6,	-1,	28,	-1,	-1,	23,	34,	-1,	-1,	49,	-1,	-1,	-1,	2,	-1,	35,	40,	61,	45,	24,	8,	55,	-1,	-1,	-1,	15,	-1,	-1,	-1,	29,	17,	-1,	-1,	53,	-1,	58,	1,	3,	37,	-1,	-1,	-1,	22,	-1,	-1,	44,	56,	46,	-1,	-1,	64,	-1,	-1,	-1,	-1|
-1,	-1,	64,	62,	-1,	-1,	15,	23,	-1,	9,	-1,	29,	26,	18,	-1,	-1,	61,	-1,	-1,	50,	-1,	-1,	-1,	-1,	-1,	-1,	22,	-1,	43,	-1,	-1,	-1,	-1,	31,	-1,	52,	-1,	-1,	-1,	-1,	-1,	-1,	14,	-1,	-1,	-1,	-1,	-1,	45,	-1,	41,	17,	19,	-1,	-1,	-1,	-1,	2,	1,	-1,	-1,	30,	-1,	-1|
-1,	-1,	-1,	-1,	-1,	-1,	1,	-1,	-1,	-1,	-1,	-1,	17,	54,	44,	-1,	-1,	52,	-1,	35,	32,	-1,	-1,	-1,	-1,	26,	-1,	-1,	18,	-1,	-1,	27,	-1,	-1,	-1,	-1,	46,	51,	-1,	-1,	-1,	20,	47,	-1,	-1,	-1,	19,	50,	-1,	-1,	59,	-1,	-1,	-1,	-1,	-1,	-1,	-1,	-1,	-1,	-1,	-1,	-1,	9|
-1,	8,	-1,	-1,	-1,	-1,	-1,	43,	-1,	-1,	-1,	-1,	-1,	-1,	12,	-1,	38,	-1,	-1,	-1,	28,	-1,	60,	36,	33,	47,	-1,	-1,	9,	34,	62,	-1,	-1,	-1,	-1,	-1,	-1,	19,	-1,	-1,	51,	-1,	-1,	6,	45,	-1,	50,	-1,	-1,	-1,	10,	53,	-1,	24,	25,	-1,	20,	-1,	-1,	4,	-1,	11,	-1,	63|
-1,	-1,	-1,	-1,	-1,	-1,	63,	-1,	64,	-1,	32,	62,	-1,	-1,	27,	-1,	-1,	-1,	-1,	20,	-1,	-1,	24,	-1,	-1,	-1,	45,	43,	-1,	-1,	-1,	-1,	-1,	-1,	-1,	59,	26,	-1,	-1,	-1,	-1,	-1,	-1,	-1,	19,	-1,	7,	25,	-1,	6,	-1,	-1,	9,	22,	51,	11,	-1,	-1,	-1,	-1,	-1,	10,	-1,	-1|
-1,	55,	33,	-1,	-1,	9,	-1,	1,	30,	-1,	-1,	-1,	-1,	-1,	-1,	22,	-1,	32,	-1,	21,	43,	-1,	27,	-1,	-1,	51,	-1,	4,	-1,	15,	-1,	-1,	39,	53,	-1,	6,	3,	62,	-1,	-1,	-1,	-1,	-1,	47,	28,	-1,	-1,	-1,	-1,	36,	61,	45,	-1,	14,	5,	-1,	-1,	-1,	-1,	-1,	-1,	-1,	-1,	-1|
-1,	20,	-1,	-1,	-1,	21,	-1,	-1,	-1,	-1,	-1,	-1,	-1,	3,	17,	-1,	-1,	16,	-1,	34,	52,	-1,	25,	-1,	-1,	-1,	5,	61,	-1,	-1,	-1,	-1,	63,	-1,	45,	31,	-1,	47,	-1,	13,	-1,	32,	-1,	-1,	-1,	9,	49,	-1,	-1,	-1,	-1,	56,	-1,	23,	-1,	-1,	-1,	-1,	64,	-1,	30,	-1,	-1,	62|
62,	-1,	-1,	-1,	6,	-1,	26,	-1,	-1,	58,	61,	41,	-1,	-1,	-1,	48,	56,	5,	15,	-1,	-1,	47,	12,	-1,	44,	-1,	63,	36,	-1,	-1,	-1,	14,	-1,	-1,	-1,	-1,	-1,	9,	11,	-1,	4,	24,	-1,	46,	-1,	-1,	-1,	-1,	-1,	17,	-1,	-1,	-1,	52,	-1,	50,	59,	43,	-1,	45,	37,	-1,	-1,	-1|
-1,	-1,	-1,	-1,	-1,	-1,	48,	-1,	-1,	-1,	-1,	-1,	38,	31,	-1,	40,	-1,	64,	6,	-1,	51,	13,	45,	26,	-1,	-1,	-1,	-1,	39,	17,	30,	12,	-1,	-1,	57,	-1,	-1,	60,	-1,	23,	-1,	27,	8,	22,	-1,	-1,	36,	-1,	-1,	35,	-1,	16,	43,	-1,	42,	-1,	47,	-1,	-1,	-1,	1,	55,	-1,	61|
50,	-1,	29,	-1,	-1,	-1,	17,	-1,	-1,	-1,	-1,	-1,	-1,	-1,	-1,	-1,	-1,	1,	39,	-1,	57,	-1,	-1,	11,	-1,	-1,	48,	-1,	-1,	19,	-1,	-1,	-1,	-1,	-1,	-1,	43,	-1,	-1,	-1,	-1,	42,	58,	-1,	-1,	-1,	56,	33,	30,	-1,	64,	15,	34,	-1,	-1,	55,	-1,	-1,	-1,	-1,	9,	12,	-1,	14|
18,	24,	-1,	-1,	-1,	-1,	-1,	52,	-1,	13,	-1,	-1,	-1,	-1,	-1,	-1,	55,	-1,	-1,	-1,	-1,	-1,	61,	40,	-1,	-1,	6,	23,	-1,	10,	11,	-1,	50,	58,	-1,	37,	-1,	-1,	27,	-1,	-1,	16,	17,	14,	-1,	-1,	41,	-1,	-1,	3,	4,	-1,	-1,	-1,	32,	28,	39,	-1,	-1,	54,	29,	46,	-1,	-1|
47,	57,	-1,	4,	-1,	-1,	-1,	-1,	-1,	-1,	14,	5,	51,	-1,	-1,	-1,	3,	-1,	-1,	28,	-1,	61,	-1,	-1,	-1,	38,	-1,	-1,	-1,	-1,	23,	29,	-1,	7,	-1,	49,	-1,	-1,	-1,	48,	-1,	-1,	54,	-1,	59,	42,	34,	-1,	-1,	-1,	-1,	-1,	53,	-1,	-1,	40,	-1,	64,	24,	-1,	19,	-1,	30,	-1|
35,	52,	-1,	-1,	60,	20,	14,	-1,	-1,	55,	-1,	-1,	-1,	59,	-1,	-1,	-1,	-1,	-1,	-1,	-1,	-1,	-1,	-1,	19,	-1,	-1,	58,	-1,	33,	43,	30,	-1,	64,	-1,	-1,	-1,	-1,	-1,	18,	6,	-1,	-1,	-1,	-1,	27,	-1,	-1,	23,	-1,	-1,	-1,	48,	47,	-1,	-1,	-1,	-1,	-1,	-1,	-1,	-1,	28,	50|
-1,	-1,	38,	23,	-1,	50,	-1,	-1,	-1,	31,	33,	-1,	-1,	-1,	-1,	64,	47,	43,	-1,	-1,	-1,	54,	-1,	27,	-1,	-1,	41,	44,	57,	-1,	42,	49,	26,	-1,	62,	-1,	-1,	17,	53,	-1,	-1,	63,	-1,	-1,	-1,	-1,	61,	32,	15,	-1,	51,	-1,	25,	19,	-1,	45,	-1,	-1,	37,	40,	-1,	1,	-1,	20|
31,	-1,	-1,	43,	42,	64,	-1,	-1,	-1,	-1,	10,	46,	63,	-1,	-1,	25,	24,	15,	11,	52,	-1,	26,	-1,	49,	39,	16,	-1,	-1,	-1,	-1,	5,	-1,	27,	-1,	-1,	56,	50,	-1,	-1,	-1,	-1,	-1,	45,	53,	14,	28,	30,	-1,	-1,	-1,	-1,	-1,	20,	12,	17,	41,	-1,	-1,	-1,	-1,	-1,	38,	34,	-1|
-1,	25,	-1,	24,	-1,	32,	28,	53,	-1,	-1,	-1,	27,	-1,	-1,	-1,	-1,	50,	-1,	-1,	12,	-1,	55,	-1,	46,	26,	18,	-1,	-1,	-1,	62,	-1,	-1,	-1,	-1,	-1,	40,	-1,	-1,	-1,	-1,	19,	-1,	-1,	-1,	-1,	58,	-1,	36,	-1,	1,	-1,	-1,	-1,	-1,	9,	31,	-1,	-1,	41,	-1,	-1,	14,	-1,	21|
-1,	-1,	-1,	17,	16,	-1,	-1,	41,	-1,	-1,	-1,	52,	-1,	-1,	-1,	28,	-1,	48,	-1,	4,	-1,	-1,	40,	-1,	54,	-1,	-1,	-1,	-1,	24,	8,	-1,	-1,	3,	-1,	-1,	-1,	-1,	-1,	-1,	22,	-1,	29,	-1,	-1,	20,	-1,	-1,	35,	-1,	-1,	-1,	56,	-1,	55,	-1,	-1,	-1,	26,	27,	33,	47,	13,	-1|
-1,	-1,	-1,	26,	48,	-1,	-1,	-1,	-1,	-1,	-1,	-1,	-1,	-1,	-1,	43,	-1,	-1,	-1,	-1,	-1,	-1,	-1,	-1,	14,	-1,	7,	56,	-1,	-1,	-1,	-1,	33,	21,	-1,	44,	-1,	54,	-1,	-1,	-1,	-1,	49,	-1,	-1,	-1,	10,	52,	-1,	-1,	32,	-1,	28,	50,	36,	-1,	-1,	-1,	-1,	-1,	31,	-1,	-1,	17|
-1,	-1,	-1,	-1,	45,	-1,	-1,	9,	-1,	26,	-1,	1,	15,	36,	-1,	56,	44,	-1,	58,	-1,	62,	-1,	-1,	-1,	3,	21,	-1,	-1,	-1,	-1,	28,	-1,	20,	57,	38,	-1,	24,	-1,	-1,	-1,	-1,	-1,	-1,	-1,	51,	50,	-1,	-1,	59,	27,	33,	63,	-1,	10,	-1,	4,	54,	-1,	-1,	-1,	52,	35,	46,	55|
60,	9,	-1,	64,	-1,	47,	-1,	17,	39,	-1,	-1,	-1,	-1,	6,	-1,	54,	-1,	51,	40,	-1,	55,	5,	-1,	58,	30,	-1,	-1,	-1,	10,	22,	45,	-1,	43,	11,	-1,	34,	-1,	-1,	-1,	-1,	-1,	-1,	61,	-1,	-1,	36,	20,	48,	-1,	-1,	3,	-1,	-1,	44,	-1,	-1,	-1,	-1,	-1,	-1,	62,	23,	-1,	-1|
-1,	15,	-1,	-1,	-1,	-1,	4,	48,	-1,	-1,	-1,	-1,	47,	41,	-1,	-1,	31,	-1,	-1,	54,	10,	28,	26,	45,	-1,	-1,	-1,	-1,	-1,	37,	-1,	-1,	-1,	-1,	-1,	-1,	-1,	-1,	-1,	46,	43,	19,	9,	-1,	-1,	49,	23,	6,	-1,	-1,	-1,	-1,	-1,	2,	50,	-1,	53,	-1,	-1,	-1,	-1,	51,	-1,	-1|
-1,	-1,	-1,	-1,	-1,	-1,	35,	40,	8,	2,	-1,	43,	19,	-1,	22,	-1,	-1,	-1,	23,	11,	4,	14,	-1,	-1,	-1,	-1,	-1,	-1,	-1,	-1,	33,	-1,	-1,	6,	-1,	-1,	-1,	-1,	-1,	-1,	-1,	57,	-1,	42,	-1,	30,	-1,	-1,	-1,	13,	9,	-1,	-1,	5,	-1,	-1,	-1,	-1,	-1,	-1,	3,	26,	-1,	-1|
32,	-1,	-1,	-1,	-1,	46,	-1,	-1,	-1,	-1,	17,	-1,	-1,	48,	63,	55,	6,	-1,	-1,	44,	-1,	-1,	-1,	-1,	-1,	-1,	51,	35,	-1,	-1,	-1,	23,	4,	-1,	59,	-1,	-1,	1,	62,	-1,	-1,	3,	15,	-1,	-1,	-1,	60,	16,	25,	7,	54,	40,	22,	45,	26,	61,	-1,	-1,	-1,	43,	50,	-1,	-1,	29|
-1,	22,	-1,	27,	59,	1,	51,	50,	23,	7,	-1,	-1,	-1,	-1,	62,	-1,	-1,	-1,	-1,	-1,	60,	-1,	43,	-1,	-1,	-1,	-1,	15,	-1,	-1,	58,	-1,	-1,	-1,	-1,	33,	61,	-1,	56,	41,	-1,	2,	-1,	32,	-1,	-1,	44,	29,	16,	12,	-1,	18,	-1,	-1,	-1,	-1,	-1,	-1,	-1,	-1,	-1,	-1,	-1,	-1|
-1,	-1,	-1,	16,	-1,	58,	-1,	-1,	5,	-1,	-1,	-1,	-1,	-1,	-1,	45,	27,	59,	-1,	33,	-1,	-1,	-1,	-1,	47,	17,	-1,	41,	29,	-1,	21,	-1,	-1,	2,	60,	51,	49,	63,	-1,	-1,	-1,	12,	22,	-1,	-1,	-1,	-1,	-1,	56,	39,	43,	35,	46,	48,	-1,	-1,	28,	-1,	-1,	15,	4,	-1,	38,	-1|
45,	-1,	-1,	13,	43,	-1,	33,	-1,	-1,	18,	16,	64,	-1,	57,	32,	-1,	-1,	-1,	-1,	-1,	48,	62,	-1,	-1,	-1,	-1,	40,	-1,	-1,	3,	-1,	-1,	-1,	22,	19,	-1,	-1,	12,	-1,	9,	28,	26,	-1,	54,	-1,	-1,	58,	-1,	51,	-1,	-1,	-1,	15,	55,	-1,	-1,	52,	-1,	31,	-1,	-1,	-1,	-1,	37|
6,	12,	23,	-1,	-1,	41,	10,	28,	-1,	38,	-1,	51,	60,	21,	-1,	-1,	-1,	22,	50,	-1,	-1,	42,	18,	56,	43,	25,	-1,	-1,	62,	49,	-1,	-1,	-1,	-1,	37,	20,	-1,	32,	-1,	-1,	11,	55,	1,	-1,	27,	34,	-1,	-1,	-1,	-1,	-1,	-1,	-1,	-1,	-1,	-1,	14,	-1,	-1,	2,	35,	-1,	-1,	-1|];
