sudoku-ls/benchmarks_LEQ/INST_64x64/40/inst64x64_40_3.txt
8
1
30	-1	-1	-1	26	-1	-1	-1	10	27	-1	-1	-1	12	59	5	41	-1	55	-1	14	38	53	-1	-1	-1	-1	-1	-1	-1	2	-1	-1	16	-1	-1	20	31	3	51	-1	17	4	28	-1	56	25	-1	37	-1	-1	-1	33	-1	-1	-1	-1	-1	-1	-1	58	-1	-1	60
-1	-1	-1	5	12	-1	50	-1	-1	8	36	31	-1	-1	-1	33	-1	-1	-1	-1	-1	-1	39	-1	42	43	30	-1	60	29	-1	3	-1	-1	-1	-1	11	-1	15	37	-1	-1	-1	-1	46	-1	-1	-1	-1	-1	-1	7	-1	35	4	-1	57	-1	-1	23	-1	-1	54	47
-1	-1	34	-1	49	55	-1	59	-1	-1	-1	-1	-1	38	-1	47	-1	21	-1	-1	-1	35	23	-1	-1	58	-1	51	-1	-1	-1	-1	-1	61	-1	-1	19	-1	-1	54	-1	-1	50	-1	60	10	11	30	12	-1	-1	32	-1	-1	-1	-1	36	-1	4	3	-1	-1	27	-1
16	47	60	15	28	-1	-1	-1	21	-1	-1	-1	-1	43	-1	57	-1	24	45	-1	31	-1	-1	-1	1	9	-1	6	-1	20	46	4	-1	12	-1	-1	-1	-1	-1	-1	36	-1	42	-1	39	52	54	51	58	-1	-1	-1	-1	30	59	-1	-1	34	-1	-1	-1	-1	-1	-1
-1	64	58	-1	54	-1	-1	-1	1	53	-1	15	-1	26	-1	-1	-1	-1	43	-1	-1	18	-1	-1	-1	-1	-1	32	-1	-1	-1	52	47	-1	-1	17	-1	-1	24	50	-1	45	-1	48	-1	-1	27	3	-1	8	-1	-1	60	-1	-1	25	-1	31	56	-1	44	-1	-1	-1
33	43	4	-1	-1	-1	38	27	54	14	-1	-1	-1	-1	-1	60	-1	-1	25	-1	-1	-1	-1	28	-1	44	-1	57	53	-1	-1	-1	1	-1	-1	-1	-1	8	-1	-1	-1	35	-1	5	34	6	32	-1	-1	-1	-1	-1	-1	51	61	20	-1	46	13	-1	39	-1	-1	-1
3	-1	-1	-1	-1	-1	-1	-1	-1	51	-1	-1	49	-1	-1	37	60	34	-1	-1	46	56	4	44	31	61	-1	12	-1	48	-1	-1	-1	-1	-1	-1	-1	-1	-1	-1	47	9	-1	20	-1	-1	33	-1	-1	40	27	-1	-1	-1	-1	2	-1	-1	14	53	-1	-1	-1	28
-1	44	-1	-1	-1	-1	-1	-1	13	-1	-1	48	-1	-1	4	16	7	-1	-1	-1	-1	6	-1	33	24	-1	28	14	17	5	36	-1	49	-1	58	-1	59	26	-1	-1	-1	-1	-1	-1	-1	8	-1	-1	52	34	42	-1	3	-1	46	-1	-1	-1	20	-1	-1	29	10	-1
24	-1	-1	-1	-1	-1	27	-1	26	25	41	-1	30	-1	-1	-1	-1	8	-1	-1	1	36	-1	-1	-1	32	-1	-1	45	46	20	-1	3	-1	-1	39	-1	-1	-1	-1	-1	4	-1	-1	-1	16	-1	5	53	31	-1	-1	23	-1	19	-1	-1	47	-1	-1	-1	61	62	57
57	45	31	-1	50	54	-1	-1	-1	19	-1	-1	55	13	38	-1	-1	61	-1	14	3	-1	28	32	17	-1	-1	-1	-1	59	37	-1	16	18	-1	29	-1	48	-1	26	-1	-1	-1	-1	-1	46	62	47	-1	-1	11	24	-1	-1	-1	-1	-1	-1	-1	-1	-1	2	-1	-1
-1	-1	-1	-1	-1	28	-1	-1	-1	-1	-1	12	-1	-1	47	-1	39	-1	-1	37	-1	-1	-1	-1	27	50	-1	-1	-1	-1	-1	62	38	-1	-1	-1	-1	20	45	-1	-1	58	32	-1	49	-1	-1	-1	22	16	-1	-1	-1	-1	10	14	-1	9	-1	29	-1	-1	-1	-1
-1	-1	35	-1	-1	-1	62	-1	48	4	-1	42	-1	-1	-1	-1	57	-1	-1	-1	56	-1	-1	43	-1	15	52	-1	-1	-1	29	-1	40	5	-1	-1	-1	-1	-1	-1	60	-1	-1	-1	18	-1	-1	7	-1	-1	-1	3	-1	59	33	30	-1	-1	32	1	-1	-1	-1	10
40	-1	-1	21	-1	17	-1	-1	-1	-1	-1	-1	-1	-1	-1	-1	-1	38	29	-1	27	-1	10	-1	-1	-1	-1	-1	-1	-1	60	-1	-1	-1	53	63	-1	46	-1	58	-1	-1	3	-1	-1	-1	-1	-1	32	-1	47	20	-1	15	-1	-1	-1	42	-1	-1	16	-1	-1	23
-1	33	-1	32	3	-1	-1	-1	-1	-1	-1	16	-1	-1	64	-1	-1	50	20	-1	-1	-1	-1	-1	-1	-1	-1	-1	4	26	35	-1	-1	36	21	47	-1	-1	30	-1	9	-1	10	-1	-1	-1	48	56	27	-1	-1	37	-1	-1	-1	17	-1	63	5	6	28	-1	45	-1
36	-1	46	-1	29	8	60	-1	43	-1	-1	20	22	-1	18	-1	51	45	-1	62	15	-1	42	-1	-1	-1	-1	1	55	11	-1	-1	-1	-1	12	-1	-1	-1	-1	-1	54	-1	-1	-1	-1	-1	-1	-1	26	-1	52	-1	39	-1	-1	-1	-1	30	-1	-1	-1	58	14	-1
-1	-1	37	1	-1	-1	39	-1	-1	-1	45	35	-1	10	5	-1	-1	-1	-1	-1	-1	-1	13	6	-1	-1	47	-1	54	-1	-1	24	-1	56	-1	-1	52	55	-1	14	-1	-1	-1	-1	22	19	-1	42	-1	-1	-1	28	-1	-1	-1	9	-1	-1	46	-1	-1	27	-1	-1
-1	63	-1	41	1	-1	-1	-1	-1	-1	9	-1	-1	-1	-1	36	-1	56	24	-1	-1	-1	-1	-1	37	55	-1	-1	23	18	-1	-1	-1	43	-1	-1	57	-1	48	-1	-1	28	-1	-1	47	44	-1	62	29	-1	50	6	-1	-1	-1	-1	-1	-1	52	-1	-1	-1	-1	-1
-1	-1	-1	-1	-1	38	-1	-1	47	-1	-1	58	64	22	57	-1	-1	11	-1	-1	6	43	54	-1	-1	-1	12	-1	-1	-1	31	15	-1	45	26	18	-1	-1	28	-1	-1	-1	-1	-1	-1	41	24	-1	36	-1	-1	-1	-1	8	-1	-1	-1	-1	-1	9	-1	40	-1	-1
-1	-1	47	46	-1	62	-1	-1	63	23	31	44	28	51	39	26	52	18	37	-1	50	21	-1	15	-1	-1	3	-1	-1	-1	6	-1	8	33	-1	13	29	-1	9	38	-1	36	64	10	-1	57	-1	-1	43	-1	-1	58	-1	4	-1	-1	11	-1	-1	59	-1	-1	-1	-1
-1	17	56	40	-1	51	-1	-1	-1	5	60	25	37	-1	54	-1	64	-1	27	-1	-1	-1	-1	57	-1	28	-1	33	58	47	-1	-1	-1	-1	-1	46	-1	-1	10	-1	32	34	16	-1	-1	-1	-1	61	2	-1	-1	-1	35	53	14	23	-1	50	-1	26	-1	21	18	-1
-1	18	-1	11	25	5	-1	36	-1	35	-1	-1	27	56	-1	-1	-1	-1	-1	46	-1	-1	48	-1	13	41	43	29	-1	-1	-1	-1	-1	-1	50	16	-1	42	-1	40	23	-1	-1	-1	-1	-1	6	19	-1	63	24	-1	17	31	28	33	7	58	2	57	-1	-1	-1	-1
54	60	-1	-1	61	-1	-1	-1	-1	32	2	6	50	-1	13	29	-1	-1	-1	10	-1	-1	59	-1	-1	-1	-1	-1	-1	-1	-1	-1	7	34	-1	14	35	-1	21	-1	-1	39	27	-1	15	-1	4	43	9	-1	-1	-1	-1	-1	47	-1	8	-1	28	51	-1	-1	-1	-1
-1	-1	-1	-1	-1	-1	49	-1	3	43	38	-1	10	-1	-1	-1	-1	29	9	-1	-1	-1	35	-1	-1	-1	-1	-1	20	57	48	61	12	-1	36	-1	25	-1	44	47	7	-1	-1	-1	53	54	52	14	-1	-1	40	-1	-1	-1	-1	-1	4	39	-1	-1	41	-1	-1	-1
64	-1	53	-1	10	4	-1	-1	-1	-1	1	-1	-1	-1	-1	-1	-1	-1	-1	40	-1	-1	7	55	-1	-1	50	8	-1	-1	14	-1	-1	30	-1	-1	-1	-1	-1	20	17	-1	-1	-1	-1	29	-1	12	3	-1	-1	-1	-1	-1	-1	-1	43	-1	-1	34	-1	56	-1	-1
1	32	-1	-1	-1	-1	-1	-1	2	-1	53	-1	13	-1	-1	30	-1	-1	-1	-1	-1	-1	-1	64	-1	23	29	-1	-1	-1	-1	-1	-1	26	-1	22	-1	16	61	-1	-1	-1	-1	-1	63	17	-1	-1	-1	-1	-1	-1	-1	-1	-1	47	27	-1	-1	-1	8	31	41	-1
28	-1	-1	-1	-1	13	20	-1	-1	-1	44	23	-1	-1	50	-1	58	49	52	-1	-1	40	-1	-1	-1	42	-1	-1	-1	-1	-1	38	29	-1	35	25	-1	36	-1	24	61	64	33	-1	-1	-1	-1	-1	-1	-1	-1	46	8	-1	-1	54	17	-1	-1	18	-1	62	9	34
-1	-1	-1	19	-1	-1	-1	63	38	54	-1	-1	32	8	33	27	35	-1	10	-1	-1	57	62	3	15	-1	24	-1	22	7	-1	25	-1	-1	42	-1	-1	18	6	31	13	-1	43	34	-1	-1	1	44	40	-1	-1	36	4	-1	39	-1	23	-1	-1	-1	-1	28	-1	46
-1	-1	-1	55	47	43	3	-1	-1	-1	-1	10	12	-1	31	-1	-1	-1	-1	-1	-1	-1	32	-1	-1	-1	56	-1	-1	51	-1	36	-1	-1	-1	-1	-1	-1	50	-1	-1	25	-1	-1	-1	39	-1	-1	17	2	57	23	49	-1	-1	-1	-1	-1	-1	35	42	60	5	-1
-1	-1	-1	-1	-1	-1	57	-1	-1	34	24	55	-1	29	-1	-1	-1	53	14	-1	21	-1	-1	-1	-1	1	27	-1	52	16	-1	59	-1	-1	-1	11	40	-1	-1	8	-1	-1	56	-1	-1	3	-1	-1	-1	32	20	33	-1	-1	48	60	13	-1	-1	47	-1	-1	2	12
-1	-1	-1	-1	-1	-1	-1	-1	58	-1	49	-1	61	5	1	-1	36	55	-1	-1	30	-1	16	-1	-1	-1	-1	-1	-1	-1	17	13	-1	-1	10	-1	60	-1	-1	-1	-1	51	37	-1	9	-1	-1	-1	-1	38	-1	-1	-1	27	6	-1	15	29	-1	-1	-1	50	4	-1
-1	-1	-1	12	-1	35	-1	-1	-1	-1	28	-1	-1	-1	60	17	46	-1	18	-1	-1	-1	-1	-1	58	34	-1	62	3	-1	49	-1	-1	-1	-1	64	-1	45	-1	56	-1	54	-1	-1	-1	32	-1	-1	31	21	-1	-1	30	16	-1	-1	55	1	-1	14	40	-1	-1	48
-1	-1	17	52	-1	-1	-1	49	-1	-1	42	-1	-1	40	36	41	-1	20	-1	-1	-1	1	-1	-1	50	-1	-1	-1	-1	-1	10	-1	32	-1	-1	23	-1	-1	43	-1	27	-1	11	58	-1	12	-1	-1	-1	18	56	-1	51	-1	-1	-1	-1	33	3	-1	-1	59	-1	54
-1	-1	32	10	-1	-1	-1	-1	36	-1	22	13	39	-1	-1	8	43	-1	-1	45	-1	15	-1	5	23	37	2	46	-1	-1	-1	34	-1	-1	6	3	-1	-1	-1	12	56	31	-1	-1	-1	-1	-1	27	-1	62	-1	-1	-1	-1	53	-1	-1	-1	-1	19	-1	24	57	-1
13	-1	-1	-1	52	6	46	22	-1	63	30	3	40	-1	53	-1	-1	54	-1	-1	8	-1	-1	18	-1	60	-1	-1	-1	32	-1	64	-1	-1	49	5	44	-1	-1	42	62	-1	57	17	4	-1	-1	-1	-1	23	58	-1	21	-1	-1	-1	34	-1	-1	-1	-1	41	-1	27
-1	51	27	53	9	-1	-1	44	-1	61	-1	-1	33	2	55	-1	-1	-1	-1	23	47	-1	-1	19	12	-1	21	-1	-1	36	1	-1	-1	-1	56	-1	-1	-1	14	-1	-1	10	-1	41	-1	-1	26	28	60	15	18	-1	-1	-1	-1	39	-1	-1	-1	-1	-1	42	58	-1
-1	-1	41	45	39	24	47	57	-1	60	-1	59	56	-1	-1	-1	-1	26	3	-1	-1	-1	33	16	5	-1	62	-1	48	-1	13	-1	58	-1	-1	-1	-1	-1	-1	-1	64	38	7	-1	-1	-1	-1	-1	-1	-1	2	-1	-1	11	20	-1	-1	-1	-1	-1	-1	15	-1	-1
-1	21	-1	-1	-1	-1	56	-1	27	64	57	-1	-1	-1	35	-1	-1	17	-1	-1	-1	44	30	-1	-1	3	-1	-1	-1	-1	-1	-1	-1	-1	8	26	4	40	36	-1	-1	-1	59	-1	-1	-1	9	49	34	46	-1	-1	-1	-1	-1	-1	29	-1	-1	10	14	-1	11	13
14	-1	-1	18	-1	-1	-1	-1	-1	-1	62	-1	-1	-1	-1	34	-1	-1	-1	57	20	9	-1	-1	-1	-1	-1	45	24	-1	-1	-1	-1	-1	15	-1	48	-1	-1	-1	39	-1	53	13	-1	1	-1	37	54	33	26	22	-1	-1	44	56	46	-1	-1	-1	5	4	-1	-1
-1	-1	64	-1	-1	12	15	23	4	-1	-1	-1	-1	18	-1	11	-1	-1	-1	-1	38	37	-1	-1	-1	33	-1	25	43	56	57	-1	54	-1	13	-1	47	34	60	-1	-1	-1	-1	-1	-1	-1	-1	-1	45	-1	41	17	19	-1	27	-1	-1	2	-1	-1	53	-1	-1	-1
8	-1	42	-1	-1	-1	-1	-1	14	-1	-1	45	-1	-1	-1	-1	-1	52	-1	-1	-1	-1	22	-1	11	-1	-1	38	-1	58	-1	-1	37	41	43	-1	-1	-1	-1	-1	-1	20	-1	-1	23	33	-1	-1	-1	30	-1	-1	13	-1	-1	-1	49	62	40	28	6	-1	-1	-1
27	-1	-1	-1	-1	-1	23	43	-1	-1	52	-1	29	-1	-1	-1	-1	46	-1	-1	28	-1	-1	-1	-1	47	-1	-1	9	-1	62	35	-1	-1	64	-1	56	19	-1	30	51	-1	18	-1	-1	31	50	-1	39	26	10	-1	59	24	-1	-1	-1	22	57	-1	-1	11	-1	63
-1	56	-1	57	15	-1	-1	-1	64	33	32	-1	54	-1	27	-1	48	-1	17	-1	35	-1	24	-1	16	52	45	-1	-1	-1	53	-1	61	42	1	59	-1	28	34	44	3	13	39	40	-1	5	-1	25	41	6	8	-1	-1	22	51	-1	21	-1	-1	-1	-1	10	-1	-1
-1	-1	33	58	64	9	41	1	30	24	8	56	57	-1	10	-1	-1	-1	-1	-1	-1	59	27	-1	-1	51	-1	-1	-1	-1	26	-1	39	-1	-1	-1	-1	-1	-1	-1	34	-1	2	-1	-1	60	63	-1	38	-1	61	45	-1	14	5	44	40	17	50	-1	-1	-1	-1	7
-1	-1	-1	-1	-1	-1	53	14	-1	-1	6	-1	-1	-1	-1	-1	-1	16	-1	-1	-1	-1	-1	8	-1	2	-1	-1	-1	-1	-1	58	63	-1	45	-1	-1	-1	38	13	-1	32	-1	26	-1	9	-1	-1	-1	-1	-1	-1	40	-1	-1	-1	-1	-1	-1	-1	-1	-1	-1	-1
-1	40	10	-1	-1	-1	26	31	-1	-1	-1	-1	1	-1	-1	-1	-1	-1	-1	3	-1	47	-1	-1	-1	54	63	36	-1	-1	32	14	2	55	-1	-1	8	-1	-1	-1	-1	-1	30	-1	-1	-1	38	64	33	-1	-1	27	18	-1	-1	-1	-1	-1	-1	45	37	-1	-1	-1
-1	54	-1	-1	34	-1	48	5	-1	-1	50	2	-1	-1	-1	-1	-1	64	-1	-1	-1	-1	-1	26	28	-1	-1	-1	39	-1	-1	-1	-1	-1	-1	-1	-1	-1	-1	-1	-1	27	8	-1	-1	-1	-1	53	-1	-1	49	-1	-1	-1	42	-1	-1	-1	33	-1	-1	55	-1	61
-1	-1	-1	-1	-1	-1	17	-1	28	-1	-1	-1	53	-1	26	-1	-1	1	39	-1	57	63	-1	-1	-1	22	48	-1	38	-1	59	-1	-1	54	24	-1	-1	-1	49	-1	35	-1	58	44	-1	-1	56	-1	30	-1	-1	15	34	-1	13	-1	-1	-1	8	5	-1	-1	6	-1
-1	-1	-1	38	-1	22	36	-1	-1	13	-1	-1	-1	-1	20	-1	55	-1	-1	7	9	-1	-1	-1	64	-1	-1	23	-1	-1	-1	57	50	58	51	37	33	-1	-1	-1	-1	-1	-1	14	-1	-1	-1	21	47	-1	-1	12	-1	-1	-1	28	39	26	-1	54	-1	-1	-1	-1
-1	-1	-1	4	-1	56	13	-1	62	50	14	5	51	16	6	-1	3	-1	-1	-1	-1	61	-1	-1	-1	-1	-1	-1	-1	12	23	29	-1	-1	9	49	58	37	31	-1	1	44	54	-1	-1	42	-1	-1	-1	-1	22	43	53	-1	-1	-1	-1	-1	24	-1	-1	-1	-1	-1
35	-1	22	54	-1	-1	-1	21	-1	-1	-1	40	-1	-1	45	38	-1	31	63	-1	37	51	17	-1	-1	-1	4	-1	-1	-1	-1	30	25	-1	16	-1	-1	-1	-1	18	6	7	26	-1	-1	-1	12	2	-1	-1	-1	61	-1	47	-1	-1	-1	-1	-1	-1	-1	36	28	50
-1	11	38	23	-1	-1	-1	-1	-1	-1	-1	-1	48	-1	58	-1	-1	-1	-1	-1	-1	-1	-1	-1	22	-1	41	-1	-1	-1	-1	49	26	-1	62	-1	28	-1	-1	5	-1	63	-1	3	-1	-1	61	-1	15	29	-1	8	-1	-1	-1	-1	-1	-1	-1	-1	18	-1	39	-1
31	36	-1	-1	42	64	-1	-1	-1	-1	10	-1	-1	32	-1	25	-1	15	-1	52	-1	-1	-1	49	39	-1	-1	-1	61	60	-1	-1	-1	-1	-1	56	50	-1	-1	6	-1	33	-1	-1	14	-1	-1	9	-1	54	7	-1	-1	-1	17	-1	58	-1	23	48	-1	38	34	-1
44	25	-1	-1	-1	-1	-1	-1	22	17	54	-1	-1	37	-1	-1	50	-1	-1	-1	23	-1	5	-1	-1	-1	-1	-1	63	-1	-1	20	-1	-1	30	40	51	-1	-1	-1	-1	-1	-1	35	38	58	16	-1	-1	-1	-1	-1	-1	-1	-1	31	60	-1	-1	-1	-1	-1	29	21
-1	-1	-1	-1	-1	-1	6	-1	-1	-1	-1	52	18	49	9	-1	32	-1	-1	-1	34	-1	-1	1	-1	10	64	-1	-1	-1	-1	-1	60	3	46	-1	12	23	-1	-1	-1	62	29	-1	-1	20	-1	-1	35	-1	30	14	56	-1	-1	-1	-1	15	26	27	-1	47	-1	44
5	62	1	-1	-1	-1	40	-1	11	41	-1	30	-1	-1	-1	43	-1	-1	-1	-1	-1	-1	64	-1	-1	-1	7	56	-1	-1	-1	51	-1	-1	-1	-1	63	-1	-1	-1	46	-1	-1	-1	-1	15	10	-1	6	-1	32	60	28	-1	-1	-1	16	-1	59	-1	-1	53	3	17
-1	39	-1	-1	-1	19	61	-1	53	-1	47	1	15	-1	8	56	44	-1	-1	13	-1	16	-1	-1	3	21	34	-1	-1	-1	-1	48	-1	-1	-1	-1	-1	43	-1	11	-1	23	-1	60	51	50	-1	17	-1	-1	33	63	-1	-1	-1	4	-1	-1	-1	-1	-1	-1	-1	-1
60	9	-1	64	-1	-1	21	-1	-1	-1	-1	-1	-1	-1	37	-1	-1	51	40	-1	-1	-1	-1	58	-1	63	-1	-1	-1	22	45	-1	43	11	-1	34	-1	14	42	15	-1	-1	-1	-1	-1	-1	-1	-1	-1	19	-1	57	38	-1	31	-1	56	-1	-1	32	62	23	-1	1
-1	15	-1	-1	-1	-1	4	48	56	-1	59	-1	-1	-1	29	-1	-1	57	61	-1	10	-1	-1	45	32	24	11	-1	-1	37	-1	-1	18	-1	-1	35	-1	-1	64	-1	-1	-1	-1	-1	13	49	-1	6	-1	-1	-1	-1	-1	2	-1	-1	53	8	-1	17	-1	51	-1	-1
61	-1	-1	-1	36	-1	-1	-1	8	-1	27	-1	-1	-1	22	-1	17	-1	-1	-1	-1	-1	-1	24	18	-1	-1	20	44	64	-1	-1	-1	-1	-1	50	-1	-1	47	10	63	-1	-1	-1	56	-1	59	39	-1	-1	-1	-1	62	5	21	-1	45	-1	-1	-1	-1	-1	-1	-1
-1	-1	20	56	30	46	-1	38	-1	10	17	-1	24	-1	-1	55	-1	36	12	-1	2	39	-1	41	8	-1	51	-1	14	-1	34	-1	-1	13	-1	-1	-1	-1	-1	-1	-1	3	15	-1	-1	-1	60	16	-1	7	54	40	22	-1	26	-1	-1	11	27	-1	50	-1	64	29
26	-1	-1	27	59	-1	51	-1	-1	7	35	-1	36	28	62	-1	-1	9	34	-1	-1	49	-1	30	48	-1	55	-1	6	-1	-1	-1	53	-1	-1	-1	-1	3	56	-1	-1	2	-1	-1	-1	45	44	-1	-1	-1	-1	-1	-1	-1	63	-1	10	21	-1	-1	46	57	47	-1
-1	7	8	16	-1	58	11	-1	5	42	-1	-1	-1	-1	-1	45	27	-1	32	33	-1	-1	-1	-1	-1	-1	-1	41	-1	50	-1	1	-1	-1	60	-1	-1	63	26	55	-1	-1	22	-1	-1	64	-1	-1	-1	39	-1	-1	46	-1	23	36	28	-1	54	15	-1	-1	38	-1
45	-1	-1	13	43	-1	-1	-1	50	18	-1	-1	-1	-1	-1	14	21	-1	-1	38	-1	-1	1	35	-1	-1	-1	-1	-1	3	-1	-1	-1	-1	-1	-1	23	-1	-1	-1	28	-1	-1	54	-1	-1	-1	4	-1	-1	6	-1	-1	-1	41	29	-1	59	31	49	-1	-1	-1	-1
-1	12	-1	44	-1	-1	-1	28	-1	-1	-1	51	60	21	-1	13	63	-1	50	15	-1	-1	-1	-1	43	-1	-1	52	-1	49	54	-1	-1	-1	37	20	36	32	-1	45	11	-1	-1	-1	27	-1	5	-1	-1	-1	-1	4	-1	33	-1	59	14	-1	-1	-1	-1	-1	-1	58
64 
52 34 33 54
14 22 42 6
35 6 15 11
28 44 36 49
25 33 5 20
46 19 29 8
14 25 37 6
4 60 36 56
8 13 50 24
4 24 9 32
46 10 30 29
58 61 9 24
24 56 41 3
27 6 18 2
49 8 37 29
22 29 15 32
44 15 18 28
52 3 47 12
22 19 38 8
63 13 25 48
17 12 1 63
64 18 54 41
60 32 36 34
56 37 46 28
35 60 22 27
32 56 17 8
8 40 31 34
54 16 28 19
40 44 52 9
59 46 11 41
11 13 3 51
53 6 18 53
16 22 55 33
12 28 19 25
29 16 10 58
16 26 34 23
31 32 42 29
64 10 16 2
26 21 40 62
58 10 3 29
46 60 49 48
64 22 55 15
38 3 34 54
51 28 13 5
24 13 13 44
24 25 3 10
38 14 47 10
15 26 16 61
43 17 13 62
33 53 38 63
11 34 29 23
45 54 49 50
32 2 15 47
13 12 56 57
56 64 54 55
13 25 50 61
46 35 60 26
50 28 10 8
39 24 16 13
41 23 48 54
19 59 29 49
39 4 3 55
10 12 22 32
63 12 17 33
